58
150
105	1
103	5
101	2
100	2
98	3
97	3
93	4
91	1
89	1
88	1
87	1
86	3
85	2
81	2
80	1
78	2
77	1
76	1
75	2
74	3
73	1
72	1
70	1
66	2
63	2
60	1
59	1
57	2
55	1
54	2
53	3
52	1
50	1
49	1
47	3
45	1
44	2
41	3
40	1
39	2
37	1
36	1
35	2
34	1
32	1
31	2
30	2
29	2
28	1
26	1
25	2
24	1
22	1
21	1
20	1
18	3
17	3
16	1
